language ESSENCE' 1.0
letting lastdx=101
letting cage be [
[43,2,2,2,3,3,3,4,3,5,3],
[15,6,9,0,0, 0,0, 0,0, 0,0],
[7,15,12,0,0, 0,0, 0,0, 0,0],
[37,14,5,15,5,16,5,16,4,0,0],
[14,8,15,9,15,0,0, 0,0, 0,0],
[4,2,16,0,0, 0,0, 0,0, 0,0],
[2,4,7,0,0, 0,0, 0,0, 0,0],
[3,10,11,0,0, 0,0, 0,0, 0,0],
[2,12,4,0,0, 0,0, 0,0, 0,0],
[53,1,15,1,16,2,15,2,14,2,13],
[4,4,4,0,0, 0,0, 0,0, 0,0],
[16,6,16,5,16,0,0, 0,0, 0,0],
[2,7,16,0,0, 0,0, 0,0, 0,0],
[15,9,16,8,16,0,0, 0,0, 0,0],
[38,7,1,8,1,8,2,8,3,0,0],
[33,3,12,4,12,5,12,6,12,0,0],
[14,14,1,0,0, 0,0, 0,0, 0,0],
[29,16,6,15,6,0,0, 0,0, 0,0],
[22,9,8,8,8,8,7,0,0, 0,0],
[13,14,9,0,0, 0,0, 0,0, 0,0],
[29,13,14,13,13,14,13,0,0, 0,0],
[9,12,9,11,9,0,0, 0,0, 0,0],
[37,16,14,16,13,15,13,15,14,15,15],
[8,9,14,0,0, 0,0, 0,0, 0,0],
[36,3,13,3,14,3,15,0,0, 0,0],
[39,10,16,10,15,10,14,11,14,0,0],
[16,5,9,4,9,0,0, 0,0, 0,0],
[44,9,2,9,3,9,4,9,5,9,6],
[4,9,13,0,0, 0,0, 0,0, 0,0],
[16,13,16,0,0, 0,0, 0,0, 0,0],
[26,1,5,1,4,2,4,3,4,0,0],
[49,10,4,10,5,11,5,11,6,0,0],
[3,4,1,3,1,0,0, 0,0, 0,0],
[22,9,11,9,12,10,12,0,0, 0,0],
[39,10,9,9,9,8,9,7,9,0,0],
[4,1,6,0,0, 0,0, 0,0, 0,0],
[10,6,15,0,0, 0,0, 0,0, 0,0],
[3,2,5,0,0, 0,0, 0,0, 0,0],
[17,15,9,16,9,0,0, 0,0, 0,0],
[27,8,5,7,5,6,5,5,5,0,0],
[34,8,4,7,4,6,4,5,4,0,0],
[10,14,4,13,4,0,0, 0,0, 0,0],
[16,16,12,16,11,0,0, 0,0, 0,0],
[36,7,2,6,2,6,1,5,1,0,0],
[47,1,3,1,2,1,1,2,1,0,0],
[46,9,7,10,7,10,6,11,7,12,7],
[9,13,15,0,0, 0,0, 0,0, 0,0],
[37,2,10,2,9,2,8,3,8,3,7],
[9,12,10,0,0, 0,0, 0,0, 0,0],
[46,5,10,4,10,3,10,3,9,0,0],
[8,8,11,0,0, 0,0, 0,0, 0,0],
[12,10,8,11,8,0,0, 0,0, 0,0],
[39,15,3,15,4,15,2,14,2,13,2],
[8,1,9,0,0, 0,0, 0,0, 0,0],
[27,12,11,13,11,13,10,0,0, 0,0],
[1,12,13,0,0, 0,0, 0,0, 0,0],
[32,16,1,15,1,16,2,16,3,0,0],
[17,3,16,4,16,0,0, 0,0, 0,0],
[49,3,11,4,11,5,11,6,11,7,11],
[6,10,3,0,0, 0,0, 0,0, 0,0],
[29,10,1,9,1,0,0, 0,0, 0,0],
[23,1,7,1,8,0,0, 0,0, 0,0],
[7,1,10,1,11,0,0, 0,0, 0,0],
[22,2,6,2,7,0,0, 0,0, 0,0],
[25,3,2,4,2,5,2,0,0, 0,0],
[28,4,8,5,8,0,0, 0,0, 0,0],
[10,4,13,0,0, 0,0, 0,0, 0,0],
[3,4,14,0,0, 0,0, 0,0, 0,0],
[6,4,15,0,0, 0,0, 0,0, 0,0],
[35,5,7,6,7,6,6,7,6,8,6],
[38,5,13,5,14,5,15,6,14,6,13],
[25,6,3,7,3,0,0, 0,0, 0,0],
[6,6,8,0,0, 0,0, 0,0, 0,0],
[4,6,10,0,0, 0,0, 0,0, 0,0],
[26,7,7,7,8,0,0, 0,0, 0,0],
[7,7,10,0,0, 0,0, 0,0, 0,0],
[43,7,14,7,15,8,14,0,0, 0,0],
[42,8,10,9,10,10,10,11,10,11,11],
[5,10,2,0,0, 0,0, 0,0, 0,0],
[16,10,13,11,13,0,0, 0,0, 0,0],
[10,11,1,0,0, 0,0, 0,0, 0,0],
[15,11,2,11,3,11,4,0,0, 0,0],
[6,11,12,0,0, 0,0, 0,0, 0,0],
[16,11,15,0,0, 0,0, 0,0, 0,0],
[7,11,16,0,0, 0,0, 0,0, 0,0],
[15,12,1,13,1,0,0, 0,0, 0,0],
[7,12,2,0,0, 0,0, 0,0, 0,0],
[4,12,3,0,0, 0,0, 0,0, 0,0],
[31,12,5,12,6,0,0, 0,0, 0,0],
[25,12,8,13,8,13,9,13,7,0,0],
[41,12,12,13,12,14,12,14,11,0,0],
[6,12,14,0,0, 0,0, 0,0, 0,0],
[26,12,15,12,16,0,0, 0,0, 0,0],
[18,13,3,14,3,0,0, 0,0, 0,0],
[15,13,5,0,0, 0,0, 0,0, 0,0],
[26,13,6,14,6,14,7,14,8,0,0],
[10,14,10,0,0, 0,0, 0,0, 0,0],
[2,14,14,0,0, 0,0, 0,0, 0,0],
[43,14,15,14,16,15,16,16,16,16,15],
[14,15,7,15,8,0,0, 0,0, 0,0],
[14,15,10,15,11,16,10,0,0, 0,0],
[23,16,7,16,8,0,0, 0,0, 0,0]
]
